NAME : hk48.tour
COMMENT : Optimum tour for hk48.tsp (Length 11461)
TYPE : TOUR
DIMENSION : 48
TOUR_SECTION
39
45
46
4
42
16
11
20
31
17
35
24
41
26
29
5
3
25
32
28
13
22
12
18
14
38
7
47
8
6
34
36
40
10
9
23
30
33
21
43
15
48
2
1
19
37
27
44
-1
EOF
